10
1 0 24
2 0 7
2 1 19
3 0 6
3 1 20
3 2 23
4 0 35
4 1 49
4 2 1
4 3 5
5 0 8
5 1 42
5 2 28
5 3 43
5 4 24
6 0 36
6 1 19
6 2 8
6 3 24
6 4 10
6 5 10
7 0 47
7 1 35
7 2 1
7 3 49
7 4 45
7 5 35
7 6 2
8 0 2
8 1 22
8 2 20
8 3 44
8 4 29
8 5 50
8 6 9
8 7 3
9 0 31
9 1 26
9 2 20
9 3 28
9 4 26
9 5 10
9 6 6
9 7 20
9 8 5
